NAME          BLANK   
ROWS
 N  OBJROW
 L  row-1
 L  row-2
 L  row-3
 L  row-4
 L  row-5
 L  row-6
 L  row-7
 L  row-8
 L  row-9
 L  row-10
 L  row-11
 L  row-12
 L  row-13
 L  row-14
 L  row-15
 L  row-16
 L  row-17
 L  row-18
 L  row-19
 L  row-20
COLUMNS
    x(1)      OBJROW    507.8          row-1     500.        
    x(1)      row-2     339.           row-3     699.        
    x(1)      row-4     896.           row-5     104.        
    x(1)      row-6     962.           row-7     896.        
    x(1)      row-8     246.           row-9     432.        
    x(1)      row-10    632.           row-12    626.        
    x(1)      row-13    344.           row-14    192.        
    x(1)      row-15    574.           row-16    109.        
    x(1)      row-17    276.           row-18    475.        
    x(1)      row-19    959.           row-20    895.        
    x(2)      OBJROW    527.85         row-1     445.        
    x(2)      row-2     385.           row-3     514.        
    x(2)      row-4     410.           row-5     749.        
    x(2)      row-6     704.           row-7     440.        
    x(2)      row-8     478.           row-9     403.        
    x(2)      row-10    549.           row-12    964.        
    x(2)      row-13    728.           row-14    215.        
    x(2)      row-15    490.           row-16    609.        
    x(2)      row-17    489.           row-18    126.        
    x(2)      row-19    886.           row-20    973.        
    x(3)      OBJROW    471.35         row-1     581.        
    x(3)      row-2     78.            row-3     654.        
    x(3)      row-4     825.           row-5     979.        
    x(3)      row-6     7.             row-7     739.        
    x(3)      row-8     151.           row-9     29.         
    x(3)      row-10    873.           row-11    258.        
    x(3)      row-12    23.            row-13    902.        
    x(3)      row-14    282.           row-15    100.        
    x(3)      row-16    954.           row-17    637.        
    x(3)      row-18    348.           row-19    428.        
    x(3)      row-20    579.        
    x(4)      OBJROW    558.25         row-1     837.        
    x(4)      row-2     71.            row-3     361.        
    x(4)      row-4     640.           row-5     417.        
    x(4)      row-6     770.           row-7     447.        
    x(4)      row-8     523.           row-9     381.        
    x(4)      row-10    947.           row-11    639.        
    x(4)      row-12    483.           row-13    548.        
    x(4)      row-14    927.           row-15    606.        
    x(4)      row-16    723.           row-17    462.        
    x(4)      row-18    491.           row-19    881.        
    x(4)      row-20    11.         
    x(5)      OBJROW    434.55         row-1     898.        
    x(5)      row-2     50.            row-3     187.        
    x(5)      row-4     405.           row-5     328.        
    x(5)      row-6     774.           row-7     127.        
    x(5)      row-8     631.           row-9     25.         
    x(5)      row-10    174.           row-11    627.        
    x(5)      row-12    773.           row-13    884.        
    x(5)      row-14    895.           row-15    29.         
    x(5)      row-16    375.           row-17    957.        
    x(5)      row-18    164.           row-19    334.        
    x(5)      row-20    54.         
    x(6)      OBJROW    462.1          row-1     477.        
    x(6)      row-2     115.           row-3     299.        
    x(6)      row-4     289.           row-5     605.        
    x(6)      row-6     379.           row-7     342.        
    x(6)      row-8     922.           row-9     332.        
    x(6)      row-10    496.           row-11    924.        
    x(6)      row-12    888.           row-13    547.        
    x(6)      row-14    37.            row-15    475.        
    x(6)      row-16    235.           row-17    920.        
    x(6)      row-18    520.           row-19    407.        
    x(6)      row-20    33.         
    x(7)      OBJROW    578.85         row-1     119.        
    x(7)      row-2     493.           row-3     779.        
    x(7)      row-4     886.           row-5     53.         
    x(7)      row-6     578.           row-7     739.        
    x(7)      row-8     278.           row-9     104.        
    x(7)      row-10    85.            row-11    873.        
    x(7)      row-12    765.           row-13    889.        
    x(7)      row-14    805.           row-15    755.        
    x(7)      row-16    991.           row-17    171.        
    x(7)      row-18    745.           row-19    911.        
    x(7)      row-20    558.        
    x(8)      OBJROW    516.85         row-1     667.        
    x(8)      row-2     243.           row-3     144.        
    x(8)      row-4     971.           row-5     148.        
    x(8)      row-6     475.           row-7     725.        
    x(8)      row-8     612.           row-9     221.        
    x(8)      row-10    663.           row-11    520.        
    x(8)      row-12    535.           row-13    627.        
    x(8)      row-14    688.           row-15    863.        
    x(8)      row-16    567.           row-17    305.        
    x(8)      row-18    384.           row-19    537.        
    x(8)      row-20    442.        
    x(9)      OBJROW    491.1          row-1     167.        
    x(9)      row-2     619.           row-3     262.        
    x(9)      row-4     932.           row-5     251.        
    x(9)      row-6     20.            row-7     930.        
    x(9)      row-8     645.           row-9     503.        
    x(9)      row-10    357.           row-11    506.        
    x(9)      row-12    823.           row-13    197.        
    x(9)      row-14    719.           row-15    810.        
    x(9)      row-16    728.           row-17    79.         
    x(9)      row-18    29.            row-19    625.        
    x(9)      row-20    620.        
    x(10)     OBJROW    514.6          row-1     351.        
    x(10)     row-2     904.           row-3     90.         
    x(10)     row-4     702.           row-5     897.        
    x(10)     row-6     276.           row-7     553.        
    x(10)     row-8     225.           row-9     571.        
    x(10)     row-10    925.           row-11    554.        
    x(10)     row-12    66.            row-13    474.        
    x(10)     row-14    661.           row-15    633.        
    x(10)     row-16    5.             row-17    215.        
    x(10)     row-18    663.           row-19    836.        
    x(10)     row-20    691.        
    x(11)     OBJROW    502.5          row-1     423.        
    x(11)     row-2     392.           row-3     556.        
    x(11)     row-4     342.           row-5     881.        
    x(11)     row-6     629.           row-7     919.        
    x(11)     row-8     271.           row-9     164.        
    x(11)     row-10    882.           row-11    462.        
    x(11)     row-12    877.           row-13    993.        
    x(11)     row-14    129.           row-15    642.        
    x(11)     row-16    206.           row-17    412.        
    x(11)     row-19    818.           row-20    52.         
    x(12)     OBJROW    430.8          row-1     927.        
    x(12)     row-2     48.            row-3     956.        
    x(12)     row-4     404.           row-5     522.        
    x(12)     row-6     397.           row-7     14.         
    x(12)     row-8     667.           row-9     114.        
    x(12)     row-10    271.           row-11    642.        
    x(12)     row-12    4.             row-13    339.        
    x(12)     row-14    67.            row-15    471.        
    x(12)     row-16    191.           row-17    503.        
    x(12)     row-18    584.           row-19    644.        
    x(12)     row-20    851.        
    x(13)     OBJROW    526.8          row-1     495.        
    x(13)     row-2     934.           row-3     574.        
    x(13)     row-4     786.           row-5     281.        
    x(13)     row-6     769.           row-7     982.        
    x(13)     row-8     762.           row-9     160.        
    x(13)     row-10    219.           row-11    91.         
    x(13)     row-12    747.           row-13    928.        
    x(13)     row-14    767.           row-15    861.        
    x(13)     row-16    267.           row-17    280.        
    x(13)     row-18    442.           row-19    66.         
    x(13)     row-20    125.        
    x(14)     OBJROW    491.2          row-1     1.          
    x(14)     row-2     235.           row-3     127.        
    x(14)     row-4     647.           row-5     585.        
    x(14)     row-6     929.           row-7     653.        
    x(14)     row-8     625.           row-9     492.        
    x(14)     row-10    921.           row-11    120.        
    x(14)     row-12    900.           row-13    429.        
    x(14)     row-14    452.           row-15    813.        
    x(14)     row-16    593.           row-17    611.        
    x(14)     row-18    364.           row-19    140.        
    x(14)     row-20    187.        
    x(15)     OBJROW    639.95         row-1     678.        
    x(15)     row-2     746.           row-3     529.        
    x(15)     row-4     732.           row-5     636.        
    x(15)     row-6     466.           row-7     942.        
    x(15)     row-8     790.           row-9     202.        
    x(15)     row-10    221.           row-11    346.        
    x(15)     row-12    564.           row-13    892.        
    x(15)     row-14    978.           row-15    869.        
    x(15)     row-16    203.           row-17    830.        
    x(15)     row-18    632.           row-19    991.        
    x(15)     row-20    552.        
    x(16)     OBJROW    582.35         row-1     692.        
    x(16)     row-2     919.           row-3     338.        
    x(16)     row-4     948.           row-5     613.        
    x(16)     row-6     135.           row-7     850.        
    x(16)     row-8     955.           row-9     521.        
    x(16)     row-10    320.           row-11    342.        
    x(16)     row-12    642.           row-13    903.        
    x(16)     row-14    255.           row-15    174.        
    x(16)     row-16    523.           row-17    31.         
    x(16)     row-18    664.           row-19    925.        
    x(16)     row-20    897.        
    x(17)     OBJROW    514.           row-1     755.        
    x(17)     row-2     323.           row-3     449.        
    x(17)     row-4     509.           row-5     887.        
    x(17)     row-6     881.           row-7     189.        
    x(17)     row-8     956.           row-9     200.        
    x(17)     row-10    807.           row-11    418.        
    x(17)     row-12    34.            row-13    563.        
    x(17)     row-14    314.           row-15    449.        
    x(17)     row-16    669.           row-17    355.        
    x(17)     row-18    757.           row-19    743.        
    x(17)     row-20    22.         
    x(18)     OBJROW    554.85         row-1     559.        
    x(18)     row-2     933.           row-3     885.        
    x(18)     row-4     275.           row-5     918.        
    x(18)     row-6     134.           row-7     63.         
    x(18)     row-8     400.           row-9     109.        
    x(18)     row-10    749.           row-11    418.        
    x(18)     row-12    529.           row-13    740.        
    x(18)     row-14    868.           row-15    705.        
    x(18)     row-16    454.           row-17    740.        
    x(18)     row-18    667.           row-19    696.        
    x(18)     row-20    255.        
    x(19)     OBJROW    461.2          row-1     423.        
    x(19)     row-2     728.           row-3     969.        
    x(19)     row-4     368.           row-5     21.         
    x(19)     row-6     622.           row-7     969.        
    x(19)     row-8     524.           row-9     110.        
    x(19)     row-10    259.           row-11    620.        
    x(19)     row-12    684.           row-13    426.        
    x(19)     row-14    492.           row-15    919.        
    x(19)     row-16    59.            row-17    433.        
    x(19)     row-18    104.           row-19    474.        
    x(19)     row-20    20.         
    x(20)     OBJROW    436.7          row-1     649.        
    x(20)     row-2     225.           row-3     208.        
    x(20)     row-4     135.           row-5     945.        
    x(20)     row-6     323.           row-7     365.        
    x(20)     row-8     581.           row-9     677.        
    x(20)     row-10    746.           row-11    982.        
    x(20)     row-12    448.           row-13    790.        
    x(20)     row-14    580.           row-15    113.        
    x(20)     row-16    76.            row-17    244.        
    x(20)     row-18    1.             row-19    212.        
    x(20)     row-20    434.        
    x(21)     OBJROW    584.35         row-1     924.        
    x(21)     row-2     208.           row-3     250.        
    x(21)     row-4     966.           row-5     885.        
    x(21)     row-6     12.            row-7     945.        
    x(21)     row-8     543.           row-9     879.        
    x(21)     row-10    65.            row-11    528.        
    x(21)     row-12    150.           row-13    818.        
    x(21)     row-14    616.           row-15    991.        
    x(21)     row-16    427.           row-17    825.        
    x(21)     row-18    533.           row-19    268.        
    x(21)     row-20    854.        
    x(22)     OBJROW    512.95         row-1     579.        
    x(22)     row-2     195.           row-3     276.        
    x(22)     row-4     718.           row-5     861.        
    x(22)     row-6     710.           row-7     26.         
    x(22)     row-8     675.           row-9     486.        
    x(22)     row-10    147.           row-11    469.        
    x(22)     row-12    977.           row-13    634.        
    x(22)     row-14    190.           row-15    631.        
    x(22)     row-16    649.           row-17    14.         
    x(22)     row-18    558.           row-19    869.        
    x(22)     row-20    595.        
    x(23)     OBJROW    449.15         row-1     282.        
    x(23)     row-2     526.           row-3     214.        
    x(23)     row-4     760.           row-5     353.        
    x(23)     row-6     46.            row-7     738.        
    x(23)     row-8     48.            row-9     43.         
    x(23)     row-10    828.           row-11    482.        
    x(23)     row-12    901.           row-13    757.        
    x(23)     row-14    910.           row-15    24.         
    x(23)     row-16    516.           row-17    484.        
    x(23)     row-18    682.           row-19    59.         
    x(23)     row-20    330.        
    x(24)     OBJROW    486.7          row-1     645.        
    x(24)     row-2     8.             row-3     468.        
    x(24)     row-4     302.           row-5     71.         
    x(24)     row-6     978.           row-7     593.        
    x(24)     row-8     807.           row-9     296.        
    x(24)     row-10    695.           row-11    302.        
    x(24)     row-12    344.           row-13    274.        
    x(24)     row-14    980.           row-15    383.        
    x(24)     row-16    482.           row-17    927.        
    x(24)     row-18    275.           row-19    711.        
    x(24)     row-20    193.        
    x(25)     OBJROW    389.3          row-1     319.        
    x(25)     row-2     454.           row-3     692.        
    x(25)     row-4     71.            row-5     89.         
    x(25)     row-6     132.           row-7     355.        
    x(25)     row-8     436.           row-9     168.        
    x(25)     row-10    224.           row-11    138.        
    x(25)     row-12    141.           row-13    651.        
    x(25)     row-14    690.           row-15    240.        
    x(25)     row-16    771.           row-17    719.        
    x(25)     row-18    871.           row-19    47.         
    x(25)     row-20    578.        
RHS
    RHS       row-1     3348.25        row-2     2542.75     
    RHS       row-3     2870.          row-4     3729.75     
    RHS       row-5     3269.75        row-6     3027.       
    RHS       row-7     3635.25        row-8     3437.75     
    RHS       row-9     1905.5         row-10    3263.75     
    RHS       row-11    2815.25        row-12    3472.       
    RHS       row-13    4069.25        row-14    3427.25     
    RHS       row-15    3405.          row-16    2845.5      
    RHS       row-17    2979.75        row-18    2769.75     
    RHS       row-19    3616.75        row-20    2700.25     
BOUNDS
 UP BOUND     x(1)      1.          
 UP BOUND     x(2)      1.          
 UP BOUND     x(3)      1.          
 UP BOUND     x(4)      1.          
 UP BOUND     x(5)      1.          
 UP BOUND     x(6)      1.          
 UP BOUND     x(7)      1.          
 UP BOUND     x(8)      1.          
 UP BOUND     x(9)      1.          
 UP BOUND     x(10)     1.          
 UP BOUND     x(11)     1.          
 UP BOUND     x(12)     1.          
 UP BOUND     x(13)     1.          
 UP BOUND     x(14)     1.          
 UP BOUND     x(15)     1.          
 UP BOUND     x(16)     1.          
 UP BOUND     x(17)     1.          
 UP BOUND     x(18)     1.          
 UP BOUND     x(19)     1.          
 UP BOUND     x(20)     1.          
 UP BOUND     x(21)     1.          
 UP BOUND     x(22)     1.          
 UP BOUND     x(23)     1.          
 UP BOUND     x(24)     1.          
 UP BOUND     x(25)     1.          
ENDATA
